6859.0 425048.0 
6891.0 423749.0 
6870.0 424349.0 
6957.0 418283.0 
6849.0 425334.0 
6895.0 423544.0 
6981.0 416269.0 
6884.0 424239.0 
6901.0 421382.0 
7077.0 411959.0 
6999.0 416141.0 
6969.0 416475.0 
7046.0 412555.0 
6911.0 419519.0 
7005.0 414466.0 
7088.0 411929.0 
